! PBE Def2-TZVP Def2-ECP PAL16
%maxcore 5000
%scf
MaxIter 1500
end
%pointcharges "hollow.pc"
*xyz 0 1
  Pt  0.00000000234822      1.62349999919448      2.29599000192365
  Pt  1.40600000034171     -0.81175999746904      2.29599000175954
  Pt  -2.81199999861585      1.62350000064826      2.29599000153621
  Pt  -1.40599999889655     -0.81175999957581      2.29599000164297
  Pt  2.81199999845628      1.62349999936857      2.29599000057985
  Pt  0.00000000147825     -3.24701999862119      2.29599000127160
  Pt  1.40599999796521     -2.43525999300079     -0.00000000219159
  Pt  -1.40600000015046     -2.43525999641969     -0.00000000111844
  Pt  1.40599999781222      2.43525998436238      0.00000000160634
  Pt  2.81199998561936      0.00000000656157      0.00000000097126
  Pt  -1.40599999527661      2.43525999502816     -0.00000000207861
  Pt  0.00000000926284      0.00000000557874      0.00000000385906
  Pt  -2.81199999778365     -0.00000000190478     -0.00000000111860
  C   1.40599999059358      0.81175999509941     -1.27584241248139
  O   1.40599998952222      0.81175999358133     -2.47766527232569
*
