! PBE Def2-TZVP Def2-ECP PAL16
%maxcore 5000
%scf
MaxIter 1500
end
%pointcharges "reference.pc"
*xyz 0 1
  Pt  -0.00000000000022      1.62349999988592      2.29599000103803
  Pt  1.40599999976683     -0.81176000017784      2.29599000098877
  Pt  -2.81200000001139      1.62349999997077      2.29599000110788
  Pt  -1.40599999976613     -0.81176000017718      2.29599000098982
  Pt  2.81200000001385      1.62349999997231      2.29599000110534
  Pt  -0.00000000000010     -3.24701999970541      2.29599000098943
  Pt  1.40599999967943     -2.43525999957445      0.00000000069586
  Pt  -1.40599999967997     -2.43525999957159      0.00000000069731
  Pt  1.40599999967672      2.43525999951904      0.00000000072026
  Pt  2.81199999991518     -0.00000000005028      0.00000000069382
  Pt  -1.40599999967878      2.43525999951849      0.00000000072141
  Pt  -0.00000000000451     -0.00000000006992      0.00000000064935
  Pt  -2.81199999991353     -0.00000000005011      0.00000000069643
  C   0.00000000000262      0.00000000000507     -9.99999999951459
  O   -0.00000000001675      0.00000000013285    -11.14168091461288
*
