! PBE Def2-TZVP Def2-ECP PAL16
%maxcore 5000
%scf
MaxIter 1500
end
%pointcharges "atop.pc"
*xyz 0 1
  Pt  0.00000000000636      1.62349999991694      2.29599000110551
  Pt  1.40599999978600     -0.81176000018226      2.29599000105487
  Pt  -2.81200000009898      1.62350000002399      2.29599000114982
  Pt  -1.40599999978143     -0.81176000018697      2.29599000105575
  Pt  2.81200000009739      1.62350000002420      2.29599000115046
  Pt  -0.00000000000098     -3.24701999978758      2.29599000101543
  Pt  1.40599999967403     -2.43525999956238      0.00000000076973
  Pt  -1.40599999967732     -2.43525999957061      0.00000000076682
  Pt  1.40599999967044      2.43525999948075      0.00000000081026
  Pt  2.81199999992898     -0.00000000003989      0.00000000078681
  Pt  -1.40599999967055      2.43525999948501      0.00000000080876
  Pt  0.00000000000755     -0.00000000006571      0.00000000073923
  Pt  -2.81199999994149     -0.00000000004066      0.00000000078239
  C   -0.00000000002610     -0.00000000004604     -1.85620505755074
  O   0.00000000016776      0.00000000027577     -3.01308310348213
*
